param n := 6;
param m := 6;
param w := 2;



param	A:	1   2   3   4   5   6:=
		1   0   27   50   42   35   33
		2   27   0   45   60   38   15
		3   50   45   0   10   55   40
		4   42   60   10   0   25   44
		5   35   38   55   25   0   12
		6   33   15   40   44   12   0;
